Solver command line: ['/opt/sw/arch/easybuild/2018b/software/CPLEX/12.9-GCCcore-8.2.0/cplex/bin/x86-64_linux/cplex']


Welcome to IBM(R) ILOG(R) CPLEX(R) Interactive Optimizer 12.9.0.0
  with Simplex, Mixed Integer & Barrier Optimizers
5725-A06 5725-A29 5724-Y48 5724-Y49 5724-Y54 5724-Y55 5655-Y21
Copyright IBM Corp. 1988, 2019.  All Rights Reserved.

Type 'help' for a list of available commands.
Type 'help' followed by a command name for more
information on commands.

CPLEX> Logfile 'cplex.log' closed.
Logfile 'obj_5_3.log' open.
CPLEX> New value for default parallel thread count: 16
CPLEX> New value for time limit in seconds: 900
CPLEX> New value for mixed integer optimality gap tolerance: 0.05
CPLEX> Problem '/localscratch/arosati/70372665/tmpg4cwiasp.pyomo.lp' read.
Read time = 0.02 sec. (0.92 ticks)
CPLEX> MIP start file '/localscratch/arosati/70372665/tmp3waqgb2p.cplex.mst' read.
CPLEX> Problem name         : /localscratch/arosati/70372665/tmpg4cwiasp.pyomo.lp
Objective sense      : Maximize
Variables            :    6088  [Nneg: 1,  General Integer: 6087]
Objective nonzeros   :    5580
Linear constraints   :    3081  [Less: 2058,  Equal: 1023]
  Nonzeros           :   47177
  RHS nonzeros       :    1175

Variables            : Min LB: 0.000000         Max UB: 15.00000       
Objective nonzeros   : Min   : 0.06453900       Max   : 3.218876       
Linear constraints   :
  Nonzeros           : Min   : 1.000000         Max   : 180.0000       
  RHS nonzeros       : Min   : 1.000000         Max   : 121.0000       
CPLEX> CPXPARAM_Threads                                 16
CPXPARAM_TimeLimit                               900
CPXPARAM_MIP_Tolerances_MIPGap                   0.050000000000000003
1 of 1 MIP starts provided solutions.
MIP start 'm1' defined initial solution with objective 154.9101.
Tried aggregator 1 time.
MIP Presolve eliminated 1349 rows and 1098 columns.
MIP Presolve modified 5151 coefficients.
Reduced MIP has 1727 rows, 4990 columns, and 27514 nonzeros.
Reduced MIP has 4928 binaries, 62 generals, 0 SOSs, and 0 indicators.
Presolve time = 0.03 sec. (23.60 ticks)
Probing time = 0.01 sec. (4.09 ticks)
Cover probing fixed 0 vars, tightened 8 bounds.
Tried aggregator 1 time.
MIP Presolve eliminated 20 rows and 0 columns.
MIP Presolve modified 100 coefficients.
Reduced MIP has 1707 rows, 4990 columns, and 27448 nonzeros.
Reduced MIP has 4928 binaries, 62 generals, 0 SOSs, and 0 indicators.
Presolve time = 0.02 sec. (20.94 ticks)
Probing time = 0.01 sec. (3.99 ticks)
Clique table members: 11009.
MIP emphasis: balance optimality and feasibility.
MIP search method: dynamic search.
Parallel mode: deterministic, using up to 16 threads.
Root relaxation solution time = 0.17 sec. (141.12 ticks)

        Nodes                                         Cuts/
   Node  Left     Objective  IInf  Best Integer    Best Bound    ItCnt     Gap

*     0+    0                          154.9101     6175.7940              --- 
      0     0      162.0807   656      154.9101      162.0807     1991    4.63%

Root node processing (before b&c):
  Real time             =    0.30 sec. (224.79 ticks)
Parallel b&c, 16 threads:
  Real time             =    0.00 sec. (0.00 ticks)
  Sync time (average)   =    0.00 sec.
  Wait time (average)   =    0.00 sec.
                          ------------
Total (root+branch&cut) =    0.30 sec. (224.79 ticks)

Solution pool: 1 solution saved.

MIP - Integer optimal, tolerance (0.05/1e-06):  Objective =  1.5491007600e+02
Current MIP best bound =  1.6208066900e+02 (gap = 7.17059, 4.63%)
Solution time =    0.31 sec.  Iterations = 1991  Nodes = 0 (1)
Deterministic time = 224.80 ticks  (734.66 ticks/sec)

CPLEX> Incumbent solution written to file '/localscratch/arosati/70372665/tmpig0ufa3o.cplex.sol'.
CPLEX> 
